c
c start with comments
c
p cnf 58 44
33 10 0
37 -27 -48 0
22 8 0
-24 -36 0
-59 25 37 53 0
-17 21 0
-38 58 0
-47 -8 0
-51 40 52 20 0
-41 -4 52 0
-16 -54 25 46 63 0
-14 -34 0
39 -9 0
-31 37 -7 0
61 -16 -19 0
14 40 51 9 0
32 60 0
-23 42 0
-12 -28 0
-10 -43 0
34 -55 -21 0
50 -29 0
-20 -58 -39 0
23 -53 0
55 43 34 0
51 -2 43 0
27 57 0
54 3 0
19 13 0
14 -55 17 0
-33 5 0
-49 -3 0
41 -56 44 0
-4 16 -4 46 0
-41 -56 -54 35 -30 0
-45 -13 0
-44 -32 0
-11 -57 0
46 -21 11 0
34 -42 41 0
38 -37 0
-50 -64 0
29 -40 20 16 0
-25 28 0